p cnf 252 1206
1 2 3 4 5 6 7 8 9 10 11  0
-12 1 0
12 -1 0
-13 12 2 0
13 -12 0
13 -2 0
-14 13 3 0
14 -13 0
14 -3 0
-15 14 4 0
15 -14 0
15 -4 0
-16 15 5 0
16 -15 0
16 -5 0
-17 16 6 0
17 -16 0
17 -6 0
-18 17 7 0
18 -17 0
18 -7 0
-19 18 8 0
19 -18 0
19 -8 0
-20 19 9 0
20 -19 0
20 -9 0
-21 20 10 0
21 -20 0
21 -10 0
-12 -2 0
-13 -3 0
-14 -4 0
-15 -5 0
-16 -6 0
-17 -7 0
-18 -8 0
-19 -9 0
-20 -10 0
-21 -11 0
22 23 24 25 26 27 28 29 30 31 32  0
-33 22 0
33 -22 0
-34 33 23 0
34 -33 0
34 -23 0
-35 34 24 0
35 -34 0
35 -24 0
-36 35 25 0
36 -35 0
36 -25 0
-37 36 26 0
37 -36 0
37 -26 0
-38 37 27 0
38 -37 0
38 -27 0
-39 38 28 0
39 -38 0
39 -28 0
-40 39 29 0
40 -39 0
40 -29 0
-41 40 30 0
41 -40 0
41 -30 0
-42 41 31 0
42 -41 0
42 -31 0
-33 -23 0
-34 -24 0
-35 -25 0
-36 -26 0
-37 -27 0
-38 -28 0
-39 -29 0
-40 -30 0
-41 -31 0
-42 -32 0
43 44 45 46 47 48 49 50 51 52 53  0
-54 43 0
54 -43 0
-55 54 44 0
55 -54 0
55 -44 0
-56 55 45 0
56 -55 0
56 -45 0
-57 56 46 0
57 -56 0
57 -46 0
-58 57 47 0
58 -57 0
58 -47 0
-59 58 48 0
59 -58 0
59 -48 0
-60 59 49 0
60 -59 0
60 -49 0
-61 60 50 0
61 -60 0
61 -50 0
-62 61 51 0
62 -61 0
62 -51 0
-63 62 52 0
63 -62 0
63 -52 0
-54 -44 0
-55 -45 0
-56 -46 0
-57 -47 0
-58 -48 0
-59 -49 0
-60 -50 0
-61 -51 0
-62 -52 0
-63 -53 0
64 65 66 67 68 69 70 71 72 73 74  0
-75 64 0
75 -64 0
-76 75 65 0
76 -75 0
76 -65 0
-77 76 66 0
77 -76 0
77 -66 0
-78 77 67 0
78 -77 0
78 -67 0
-79 78 68 0
79 -78 0
79 -68 0
-80 79 69 0
80 -79 0
80 -69 0
-81 80 70 0
81 -80 0
81 -70 0
-82 81 71 0
82 -81 0
82 -71 0
-83 82 72 0
83 -82 0
83 -72 0
-84 83 73 0
84 -83 0
84 -73 0
-75 -65 0
-76 -66 0
-77 -67 0
-78 -68 0
-79 -69 0
-80 -70 0
-81 -71 0
-82 -72 0
-83 -73 0
-84 -74 0
85 86 87 88 89 90 91 92 93 94 95  0
-96 85 0
96 -85 0
-97 96 86 0
97 -96 0
97 -86 0
-98 97 87 0
98 -97 0
98 -87 0
-99 98 88 0
99 -98 0
99 -88 0
-100 99 89 0
100 -99 0
100 -89 0
-101 100 90 0
101 -100 0
101 -90 0
-102 101 91 0
102 -101 0
102 -91 0
-103 102 92 0
103 -102 0
103 -92 0
-104 103 93 0
104 -103 0
104 -93 0
-105 104 94 0
105 -104 0
105 -94 0
-96 -86 0
-97 -87 0
-98 -88 0
-99 -89 0
-100 -90 0
-101 -91 0
-102 -92 0
-103 -93 0
-104 -94 0
-105 -95 0
106 107 108 109 110 111 112 113 114 115 116  0
-117 106 0
117 -106 0
-118 117 107 0
118 -117 0
118 -107 0
-119 118 108 0
119 -118 0
119 -108 0
-120 119 109 0
120 -119 0
120 -109 0
-121 120 110 0
121 -120 0
121 -110 0
-122 121 111 0
122 -121 0
122 -111 0
-123 122 112 0
123 -122 0
123 -112 0
-124 123 113 0
124 -123 0
124 -113 0
-125 124 114 0
125 -124 0
125 -114 0
-126 125 115 0
126 -125 0
126 -115 0
-117 -107 0
-118 -108 0
-119 -109 0
-120 -110 0
-121 -111 0
-122 -112 0
-123 -113 0
-124 -114 0
-125 -115 0
-126 -116 0
127 128 129 130 131 132 133 134 135 136 137  0
-138 127 0
138 -127 0
-139 138 128 0
139 -138 0
139 -128 0
-140 139 129 0
140 -139 0
140 -129 0
-141 140 130 0
141 -140 0
141 -130 0
-142 141 131 0
142 -141 0
142 -131 0
-143 142 132 0
143 -142 0
143 -132 0
-144 143 133 0
144 -143 0
144 -133 0
-145 144 134 0
145 -144 0
145 -134 0
-146 145 135 0
146 -145 0
146 -135 0
-147 146 136 0
147 -146 0
147 -136 0
-138 -128 0
-139 -129 0
-140 -130 0
-141 -131 0
-142 -132 0
-143 -133 0
-144 -134 0
-145 -135 0
-146 -136 0
-147 -137 0
148 149 150 151 152 153 154 155 156 157 158  0
-159 148 0
159 -148 0
-160 159 149 0
160 -159 0
160 -149 0
-161 160 150 0
161 -160 0
161 -150 0
-162 161 151 0
162 -161 0
162 -151 0
-163 162 152 0
163 -162 0
163 -152 0
-164 163 153 0
164 -163 0
164 -153 0
-165 164 154 0
165 -164 0
165 -154 0
-166 165 155 0
166 -165 0
166 -155 0
-167 166 156 0
167 -166 0
167 -156 0
-168 167 157 0
168 -167 0
168 -157 0
-159 -149 0
-160 -150 0
-161 -151 0
-162 -152 0
-163 -153 0
-164 -154 0
-165 -155 0
-166 -156 0
-167 -157 0
-168 -158 0
169 170 171 172 173 174 175 176 177 178 179  0
-180 169 0
180 -169 0
-181 180 170 0
181 -180 0
181 -170 0
-182 181 171 0
182 -181 0
182 -171 0
-183 182 172 0
183 -182 0
183 -172 0
-184 183 173 0
184 -183 0
184 -173 0
-185 184 174 0
185 -184 0
185 -174 0
-186 185 175 0
186 -185 0
186 -175 0
-187 186 176 0
187 -186 0
187 -176 0
-188 187 177 0
188 -187 0
188 -177 0
-189 188 178 0
189 -188 0
189 -178 0
-180 -170 0
-181 -171 0
-182 -172 0
-183 -173 0
-184 -174 0
-185 -175 0
-186 -176 0
-187 -177 0
-188 -178 0
-189 -179 0
190 191 192 193 194 195 196 197 198 199 200  0
-201 190 0
201 -190 0
-202 201 191 0
202 -201 0
202 -191 0
-203 202 192 0
203 -202 0
203 -192 0
-204 203 193 0
204 -203 0
204 -193 0
-205 204 194 0
205 -204 0
205 -194 0
-206 205 195 0
206 -205 0
206 -195 0
-207 206 196 0
207 -206 0
207 -196 0
-208 207 197 0
208 -207 0
208 -197 0
-209 208 198 0
209 -208 0
209 -198 0
-210 209 199 0
210 -209 0
210 -199 0
-201 -191 0
-202 -192 0
-203 -193 0
-204 -194 0
-205 -195 0
-206 -196 0
-207 -197 0
-208 -198 0
-209 -199 0
-210 -200 0
211 212 213 214 215 216 217 218 219 220 221  0
-222 211 0
222 -211 0
-223 222 212 0
223 -222 0
223 -212 0
-224 223 213 0
224 -223 0
224 -213 0
-225 224 214 0
225 -224 0
225 -214 0
-226 225 215 0
226 -225 0
226 -215 0
-227 226 216 0
227 -226 0
227 -216 0
-228 227 217 0
228 -227 0
228 -217 0
-229 228 218 0
229 -228 0
229 -218 0
-230 229 219 0
230 -229 0
230 -219 0
-231 230 220 0
231 -230 0
231 -220 0
-222 -212 0
-223 -213 0
-224 -214 0
-225 -215 0
-226 -216 0
-227 -217 0
-228 -218 0
-229 -219 0
-230 -220 0
-231 -221 0
232 233 234 235 236 237 238 239 240 241 242  0
-243 232 0
243 -232 0
-244 243 233 0
244 -243 0
244 -233 0
-245 244 234 0
245 -244 0
245 -234 0
-246 245 235 0
246 -245 0
246 -235 0
-247 246 236 0
247 -246 0
247 -236 0
-248 247 237 0
248 -247 0
248 -237 0
-249 248 238 0
249 -248 0
249 -238 0
-250 249 239 0
250 -249 0
250 -239 0
-251 250 240 0
251 -250 0
251 -240 0
-252 251 241 0
252 -251 0
252 -241 0
-243 -233 0
-244 -234 0
-245 -235 0
-246 -236 0
-247 -237 0
-248 -238 0
-249 -239 0
-250 -240 0
-251 -241 0
-252 -242 0
-22 -1 0
-43 -1 0
-43 -22 0
-64 -1 0
-64 -22 0
-64 -43 0
-85 -1 0
-85 -22 0
-85 -43 0
-85 -64 0
-106 -1 0
-106 -22 0
-106 -43 0
-106 -64 0
-106 -85 0
-127 -1 0
-127 -22 0
-127 -43 0
-127 -64 0
-127 -85 0
-127 -106 0
-148 -1 0
-148 -22 0
-148 -43 0
-148 -64 0
-148 -85 0
-148 -106 0
-148 -127 0
-169 -1 0
-169 -22 0
-169 -43 0
-169 -64 0
-169 -85 0
-169 -106 0
-169 -127 0
-169 -148 0
-190 -1 0
-190 -22 0
-190 -43 0
-190 -64 0
-190 -85 0
-190 -106 0
-190 -127 0
-190 -148 0
-190 -169 0
-211 -1 0
-211 -22 0
-211 -43 0
-211 -64 0
-211 -85 0
-211 -106 0
-211 -127 0
-211 -148 0
-211 -169 0
-211 -190 0
-232 -1 0
-232 -22 0
-232 -43 0
-232 -64 0
-232 -85 0
-232 -106 0
-232 -127 0
-232 -148 0
-232 -169 0
-232 -190 0
-232 -211 0
-23 -2 0
-44 -2 0
-44 -23 0
-65 -2 0
-65 -23 0
-65 -44 0
-86 -2 0
-86 -23 0
-86 -44 0
-86 -65 0
-107 -2 0
-107 -23 0
-107 -44 0
-107 -65 0
-107 -86 0
-128 -2 0
-128 -23 0
-128 -44 0
-128 -65 0
-128 -86 0
-128 -107 0
-149 -2 0
-149 -23 0
-149 -44 0
-149 -65 0
-149 -86 0
-149 -107 0
-149 -128 0
-170 -2 0
-170 -23 0
-170 -44 0
-170 -65 0
-170 -86 0
-170 -107 0
-170 -128 0
-170 -149 0
-191 -2 0
-191 -23 0
-191 -44 0
-191 -65 0
-191 -86 0
-191 -107 0
-191 -128 0
-191 -149 0
-191 -170 0
-212 -2 0
-212 -23 0
-212 -44 0
-212 -65 0
-212 -86 0
-212 -107 0
-212 -128 0
-212 -149 0
-212 -170 0
-212 -191 0
-233 -2 0
-233 -23 0
-233 -44 0
-233 -65 0
-233 -86 0
-233 -107 0
-233 -128 0
-233 -149 0
-233 -170 0
-233 -191 0
-233 -212 0
-24 -3 0
-45 -3 0
-45 -24 0
-66 -3 0
-66 -24 0
-66 -45 0
-87 -3 0
-87 -24 0
-87 -45 0
-87 -66 0
-108 -3 0
-108 -24 0
-108 -45 0
-108 -66 0
-108 -87 0
-129 -3 0
-129 -24 0
-129 -45 0
-129 -66 0
-129 -87 0
-129 -108 0
-150 -3 0
-150 -24 0
-150 -45 0
-150 -66 0
-150 -87 0
-150 -108 0
-150 -129 0
-171 -3 0
-171 -24 0
-171 -45 0
-171 -66 0
-171 -87 0
-171 -108 0
-171 -129 0
-171 -150 0
-192 -3 0
-192 -24 0
-192 -45 0
-192 -66 0
-192 -87 0
-192 -108 0
-192 -129 0
-192 -150 0
-192 -171 0
-213 -3 0
-213 -24 0
-213 -45 0
-213 -66 0
-213 -87 0
-213 -108 0
-213 -129 0
-213 -150 0
-213 -171 0
-213 -192 0
-234 -3 0
-234 -24 0
-234 -45 0
-234 -66 0
-234 -87 0
-234 -108 0
-234 -129 0
-234 -150 0
-234 -171 0
-234 -192 0
-234 -213 0
-25 -4 0
-46 -4 0
-46 -25 0
-67 -4 0
-67 -25 0
-67 -46 0
-88 -4 0
-88 -25 0
-88 -46 0
-88 -67 0
-109 -4 0
-109 -25 0
-109 -46 0
-109 -67 0
-109 -88 0
-130 -4 0
-130 -25 0
-130 -46 0
-130 -67 0
-130 -88 0
-130 -109 0
-151 -4 0
-151 -25 0
-151 -46 0
-151 -67 0
-151 -88 0
-151 -109 0
-151 -130 0
-172 -4 0
-172 -25 0
-172 -46 0
-172 -67 0
-172 -88 0
-172 -109 0
-172 -130 0
-172 -151 0
-193 -4 0
-193 -25 0
-193 -46 0
-193 -67 0
-193 -88 0
-193 -109 0
-193 -130 0
-193 -151 0
-193 -172 0
-214 -4 0
-214 -25 0
-214 -46 0
-214 -67 0
-214 -88 0
-214 -109 0
-214 -130 0
-214 -151 0
-214 -172 0
-214 -193 0
-235 -4 0
-235 -25 0
-235 -46 0
-235 -67 0
-235 -88 0
-235 -109 0
-235 -130 0
-235 -151 0
-235 -172 0
-235 -193 0
-235 -214 0
-26 -5 0
-47 -5 0
-47 -26 0
-68 -5 0
-68 -26 0
-68 -47 0
-89 -5 0
-89 -26 0
-89 -47 0
-89 -68 0
-110 -5 0
-110 -26 0
-110 -47 0
-110 -68 0
-110 -89 0
-131 -5 0
-131 -26 0
-131 -47 0
-131 -68 0
-131 -89 0
-131 -110 0
-152 -5 0
-152 -26 0
-152 -47 0
-152 -68 0
-152 -89 0
-152 -110 0
-152 -131 0
-173 -5 0
-173 -26 0
-173 -47 0
-173 -68 0
-173 -89 0
-173 -110 0
-173 -131 0
-173 -152 0
-194 -5 0
-194 -26 0
-194 -47 0
-194 -68 0
-194 -89 0
-194 -110 0
-194 -131 0
-194 -152 0
-194 -173 0
-215 -5 0
-215 -26 0
-215 -47 0
-215 -68 0
-215 -89 0
-215 -110 0
-215 -131 0
-215 -152 0
-215 -173 0
-215 -194 0
-236 -5 0
-236 -26 0
-236 -47 0
-236 -68 0
-236 -89 0
-236 -110 0
-236 -131 0
-236 -152 0
-236 -173 0
-236 -194 0
-236 -215 0
-27 -6 0
-48 -6 0
-48 -27 0
-69 -6 0
-69 -27 0
-69 -48 0
-90 -6 0
-90 -27 0
-90 -48 0
-90 -69 0
-111 -6 0
-111 -27 0
-111 -48 0
-111 -69 0
-111 -90 0
-132 -6 0
-132 -27 0
-132 -48 0
-132 -69 0
-132 -90 0
-132 -111 0
-153 -6 0
-153 -27 0
-153 -48 0
-153 -69 0
-153 -90 0
-153 -111 0
-153 -132 0
-174 -6 0
-174 -27 0
-174 -48 0
-174 -69 0
-174 -90 0
-174 -111 0
-174 -132 0
-174 -153 0
-195 -6 0
-195 -27 0
-195 -48 0
-195 -69 0
-195 -90 0
-195 -111 0
-195 -132 0
-195 -153 0
-195 -174 0
-216 -6 0
-216 -27 0
-216 -48 0
-216 -69 0
-216 -90 0
-216 -111 0
-216 -132 0
-216 -153 0
-216 -174 0
-216 -195 0
-237 -6 0
-237 -27 0
-237 -48 0
-237 -69 0
-237 -90 0
-237 -111 0
-237 -132 0
-237 -153 0
-237 -174 0
-237 -195 0
-237 -216 0
-28 -7 0
-49 -7 0
-49 -28 0
-70 -7 0
-70 -28 0
-70 -49 0
-91 -7 0
-91 -28 0
-91 -49 0
-91 -70 0
-112 -7 0
-112 -28 0
-112 -49 0
-112 -70 0
-112 -91 0
-133 -7 0
-133 -28 0
-133 -49 0
-133 -70 0
-133 -91 0
-133 -112 0
-154 -7 0
-154 -28 0
-154 -49 0
-154 -70 0
-154 -91 0
-154 -112 0
-154 -133 0
-175 -7 0
-175 -28 0
-175 -49 0
-175 -70 0
-175 -91 0
-175 -112 0
-175 -133 0
-175 -154 0
-196 -7 0
-196 -28 0
-196 -49 0
-196 -70 0
-196 -91 0
-196 -112 0
-196 -133 0
-196 -154 0
-196 -175 0
-217 -7 0
-217 -28 0
-217 -49 0
-217 -70 0
-217 -91 0
-217 -112 0
-217 -133 0
-217 -154 0
-217 -175 0
-217 -196 0
-238 -7 0
-238 -28 0
-238 -49 0
-238 -70 0
-238 -91 0
-238 -112 0
-238 -133 0
-238 -154 0
-238 -175 0
-238 -196 0
-238 -217 0
-29 -8 0
-50 -8 0
-50 -29 0
-71 -8 0
-71 -29 0
-71 -50 0
-92 -8 0
-92 -29 0
-92 -50 0
-92 -71 0
-113 -8 0
-113 -29 0
-113 -50 0
-113 -71 0
-113 -92 0
-134 -8 0
-134 -29 0
-134 -50 0
-134 -71 0
-134 -92 0
-134 -113 0
-155 -8 0
-155 -29 0
-155 -50 0
-155 -71 0
-155 -92 0
-155 -113 0
-155 -134 0
-176 -8 0
-176 -29 0
-176 -50 0
-176 -71 0
-176 -92 0
-176 -113 0
-176 -134 0
-176 -155 0
-197 -8 0
-197 -29 0
-197 -50 0
-197 -71 0
-197 -92 0
-197 -113 0
-197 -134 0
-197 -155 0
-197 -176 0
-218 -8 0
-218 -29 0
-218 -50 0
-218 -71 0
-218 -92 0
-218 -113 0
-218 -134 0
-218 -155 0
-218 -176 0
-218 -197 0
-239 -8 0
-239 -29 0
-239 -50 0
-239 -71 0
-239 -92 0
-239 -113 0
-239 -134 0
-239 -155 0
-239 -176 0
-239 -197 0
-239 -218 0
-30 -9 0
-51 -9 0
-51 -30 0
-72 -9 0
-72 -30 0
-72 -51 0
-93 -9 0
-93 -30 0
-93 -51 0
-93 -72 0
-114 -9 0
-114 -30 0
-114 -51 0
-114 -72 0
-114 -93 0
-135 -9 0
-135 -30 0
-135 -51 0
-135 -72 0
-135 -93 0
-135 -114 0
-156 -9 0
-156 -30 0
-156 -51 0
-156 -72 0
-156 -93 0
-156 -114 0
-156 -135 0
-177 -9 0
-177 -30 0
-177 -51 0
-177 -72 0
-177 -93 0
-177 -114 0
-177 -135 0
-177 -156 0
-198 -9 0
-198 -30 0
-198 -51 0
-198 -72 0
-198 -93 0
-198 -114 0
-198 -135 0
-198 -156 0
-198 -177 0
-219 -9 0
-219 -30 0
-219 -51 0
-219 -72 0
-219 -93 0
-219 -114 0
-219 -135 0
-219 -156 0
-219 -177 0
-219 -198 0
-240 -9 0
-240 -30 0
-240 -51 0
-240 -72 0
-240 -93 0
-240 -114 0
-240 -135 0
-240 -156 0
-240 -177 0
-240 -198 0
-240 -219 0
-31 -10 0
-52 -10 0
-52 -31 0
-73 -10 0
-73 -31 0
-73 -52 0
-94 -10 0
-94 -31 0
-94 -52 0
-94 -73 0
-115 -10 0
-115 -31 0
-115 -52 0
-115 -73 0
-115 -94 0
-136 -10 0
-136 -31 0
-136 -52 0
-136 -73 0
-136 -94 0
-136 -115 0
-157 -10 0
-157 -31 0
-157 -52 0
-157 -73 0
-157 -94 0
-157 -115 0
-157 -136 0
-178 -10 0
-178 -31 0
-178 -52 0
-178 -73 0
-178 -94 0
-178 -115 0
-178 -136 0
-178 -157 0
-199 -10 0
-199 -31 0
-199 -52 0
-199 -73 0
-199 -94 0
-199 -115 0
-199 -136 0
-199 -157 0
-199 -178 0
-220 -10 0
-220 -31 0
-220 -52 0
-220 -73 0
-220 -94 0
-220 -115 0
-220 -136 0
-220 -157 0
-220 -178 0
-220 -199 0
-241 -10 0
-241 -31 0
-241 -52 0
-241 -73 0
-241 -94 0
-241 -115 0
-241 -136 0
-241 -157 0
-241 -178 0
-241 -199 0
-241 -220 0
-32 -11 0
-53 -11 0
-53 -32 0
-74 -11 0
-74 -32 0
-74 -53 0
-95 -11 0
-95 -32 0
-95 -53 0
-95 -74 0
-116 -11 0
-116 -32 0
-116 -53 0
-116 -74 0
-116 -95 0
-137 -11 0
-137 -32 0
-137 -53 0
-137 -74 0
-137 -95 0
-137 -116 0
-158 -11 0
-158 -32 0
-158 -53 0
-158 -74 0
-158 -95 0
-158 -116 0
-158 -137 0
-179 -11 0
-179 -32 0
-179 -53 0
-179 -74 0
-179 -95 0
-179 -116 0
-179 -137 0
-179 -158 0
-200 -11 0
-200 -32 0
-200 -53 0
-200 -74 0
-200 -95 0
-200 -116 0
-200 -137 0
-200 -158 0
-200 -179 0
-221 -11 0
-221 -32 0
-221 -53 0
-221 -74 0
-221 -95 0
-221 -116 0
-221 -137 0
-221 -158 0
-221 -179 0
-221 -200 0
-242 -11 0
-242 -32 0
-242 -53 0
-242 -74 0
-242 -95 0
-242 -116 0
-242 -137 0
-242 -158 0
-242 -179 0
-242 -200 0
-242 -221 0
